; benchmark generated from python API
(set-info :status unknown)
(declare-fun S_0 () Real)
(declare-fun S_1 () Real)
(declare-fun S_4 () Real)
(declare-fun S_2 () Real)
(declare-fun L_0 () Real)
(declare-fun A_0 () Real)
(declare-fun S_3 () Real)
(declare-fun A_4 () Real)
(declare-fun Q_4 () Real)
(declare-fun A_1 () Real)
(declare-fun A_2 () Real)
(declare-fun A_3 () Real)
(assert
 (let (($x4527 (<= (+ (* (- 2.0) S_4) (* (- 1.0) A_0) L_0 (* 3.0 S_2)) 0.0)))
 (let (($x7465 (<= (+ (* (- (/ 1.0 2.0)) S_4) (* (- 1.0) A_0) L_0 (* (/ 3.0 2.0) S_1)) 0.0)))
 (let (($x1648 (<= (+ (* (- 1.0) A_0) L_0 (* (- 1.0) S_3) (* 2.0 S_1)) 0.0)))
 (let (($x34 (>= L_0 0.0)))
 (let (($x38402 (not (<= 0.0 (+ (* (- 2.0) Q_4) (* 2.0 A_4) (* (- 2.0) A_2))))))
 (let ((?x3051 (* (- 3.0) A_1)))
 (let ((?x3038 (* 3.0 A_4)))
 (let ((?x3041 (* (- 3.0) Q_4)))
 (let ((?x370 (* (- 1.0) S_4)))
 (let (($x37393 (not (<= 0.0 (+ ?x370 ?x3041 ?x3038 ?x3051 S_0)))))
 (let (($x36572 (not (<= (- 5.0) (+ S_4 (* (- 1.0) Q_4) (* (- 1.0) S_3))))))
 (let (($x5137 (not (<= (+ ?x370 Q_4 (* (- 1.0) A_4) A_3 S_3) 0.0))))
 (let ((?x350 (* (- 1.0) S_1)))
 (let ((?x363 (* (- 1.0) S_3)))
 (let ((?x3823 (* (- 2.0) Q_4)))
 (let ((?x2866 (* 2.0 S_4)))
 (let (($x36637 (not (<= 0.0 (+ ?x2866 ?x3823 ?x363 ?x350)))))
 (let (($x36564 (not (<= 0.0 (+ ?x2866 (* (- 1.0) A_0) L_0 ?x3823 ?x363)))))
 (let (($x38242 (<= 0.0 (+ (* 3.0 S_4) ?x3041 (* (- 2.0) S_3) (* (- 1.0) S_0)))))
 (let (($x38243 (not $x38242)))
 (let ((?x1595 (* (- 3.0) S_3)))
 (let ((?x3730 (* (- 2.0) A_2)))
 (let ((?x5238 (* 2.0 A_4)))
 (let (($x37484 (not (<= 0.0 (+ ?x2866 ?x3823 ?x5238 ?x3730 ?x1595 S_0)))))
 (let ((?x1345 (* 3.0 S_0)))
 (let ((?x3054 (* 3.0 S_4)))
 (let (($x36395 (not (<= 0.0 (+ ?x3054 ?x3041 ?x3038 ?x3051 (* (- 6.0) S_3) ?x1345)))))
 (let (($x36590 (not (<= (- 5.0) (+ (* (- 1.0) A_2) A_1)))))
 (let (($x33971 (<= 0.0 (+ (* (- 1.0) A_4) A_3 (* (/ 1.0 2.0) S_3) (* (- (/ 1.0 2.0)) S_0)))))
 (let (($x39537 (not (<= 0.0 (+ S_4 ?x3823 (* (- 1.0) S_0))))))
 (let ((?x1155 (* (- 1.0) S_0)))
 (let ((?x8249 (* 4.0 A_4)))
 (let ((?x8251 (* (- 4.0) Q_4)))
 (let (($x38989 (not (<= 0.0 (+ S_4 ?x8251 ?x8249 (* (- 4.0) A_3) ?x1155)))))
 (let (($x36292 (not (<= 0.0 (+ S_4 (* (- 1.0) Q_4) (* (- 1.0) S_2))))))
 (let (($x39297 (not (<= (- 5.0) (+ (* (- 1.0) Q_4) A_4 (* (- 1.0) A_3))))))
 (let (($x21483 (not (<= Q_4 10.0))))
 (let (($x38973 (<= 0.0 (+ S_4 (* (- 1.0) A_0) L_0 ?x3041 ?x3038 (* (- 3.0) A_3)))))
 (let (($x38974 (not $x38973)))
 (let (($x38872 (not (<= 0.0 (+ S_4 (* (- 1.0) A_0) L_0 (* (- (/ 3.0 2.0)) Q_4))))))
 (let (($x37722 (not (<= 0.0 (+ (* (- 3.0) S_4) ?x3041 ?x3038 ?x3051 (* 3.0 S_2))))))
 (let (($x39866 (not (<= 0.0 (+ S_4 ?x3823 ?x5238 (* (- 2.0) A_3) (* (- 1.0) S_2))))))
 (let (($x39387 (not (<= 0.0 (+ S_4 (* (- (/ 3.0 2.0)) Q_4) ?x350)))))
 (let (($x38992 (not (<= 0.0 (+ S_4 ?x3041 ?x3038 (* (- 3.0) A_3) ?x350)))))
 (let (($x37169 (not (<= 0.0 (+ ?x370 ?x3823 ?x5238 (* (- 2.0) A_1) S_1)))))
 (let (($x38829 (<= 0.0 (+ S_4 (* (- 1.0) A_3) A_2 (* (- 1.0) S_2)))))
 (let (($x33766 (not (<= 0.0 (+ (* (- 1.0) A_3) A_1 S_3 ?x1155)))))
 (let ((?x1367 (* 2.0 S_1)))
 (let ((?x376 (* (- 1.0) A_1)))
 (let ((?x389 (* (- 1.0) Q_4)))
 (let (($x36985 (not (<= 0.0 (+ S_4 ?x389 A_4 ?x376 ?x1595 ?x1367)))))
 (let (($x36945 (<= 0.0 (+ S_4 ?x389 A_4 (* (- 1.0) A_2) (* (- 2.0) S_3) S_1))))
 (let (($x36946 (not $x36945)))
 (let ((?x356 (* (- 1.0) S_2)))
 (let ((?x2665 (* 3.0 S_3)))
 (let ((?x6253 (* (- 2.0) A_4)))
 (let ((?x3733 (* 2.0 Q_4)))
 (let ((?x2843 (* 2.0 L_0)))
 (let (($x935 (= Q_4 0.0)))
 (let ((?x6880 (+ (* (/ 2.0 3.0) L_0) (* (/ 2.0 3.0) Q_4) (* (- (/ 2.0 3.0)) A_4) (* (/ 5.0 3.0) S_1) ?x1155)))
 (let ((?x8164 (* (- 4.0) A_4)))
 (let ((?x8163 (* 4.0 Q_4)))
 (let ((?x7812 (* 4.0 L_0)))
 (let ((?x6869 (* (- (/ 1.0 3.0)) A_4)))
 (let ((?x6868 (* (/ 1.0 3.0) Q_4)))
 (let ((?x1097 (* (- 1.0) A_0)))
 (let (($x81394 (or $x935 (<= (+ ?x1097 (* (/ 4.0 3.0) L_0) ?x6868 ?x6869 (* (/ 4.0 3.0) S_1)) 0.0))))
 (let ((?x2827 (+ (* (/ 1.0 2.0) L_0) (* (/ 1.0 2.0) Q_4) (* (- (/ 1.0 2.0)) A_4) (* (/ 1.0 2.0) S_2))))
 (let (($x38960 (or $x935 (<= (+ L_0 Q_4 (* (- 1.0) A_4) (* 2.0 S_2) ?x350) 0.0))))
 (let (($x8129 (<= (+ ?x1097 ?x7812 (* 3.0 Q_4) (* (- 3.0) A_4) (* 4.0 S_3)) 0.0)))
 (let ((?x6126 (* 4.0 S_3)))
 (let ((?x3080 (* (- 3.0) A_4)))
 (let ((?x3079 (* 3.0 Q_4)))
 (let (($x38376 (or $x935 (<= (+ (* (/ 1.0 3.0) L_0) ?x6868 ?x6869 (* (/ 1.0 3.0) S_1)) (- 5.0)))))
 (let (($x1276 (>= Q_4 5.0)))
 (let (($x80538 (or $x1276 (<= 0.0 (+ (* (- (/ 1.0 2.0)) A_3) A_2 (* (- (/ 1.0 2.0)) A_1))) $x36395)))
 (let (($x1172 (not (<= Q_4 0.0))))
 (let (($x80564 (or $x935 (<= (+ ?x1097 ?x2843 Q_4 (* (- 1.0) A_4) (* 2.0 S_2)) 0.0))))
 (let ((?x2829 (* (/ 3.0 2.0) Q_4)))
 (let (($x2834 (<= (+ (* (/ 3.0 2.0) L_0) ?x2829 (* (- (/ 3.0 2.0)) A_4) (* (/ 5.0 2.0) S_2) ?x1155) 0.0)))
 (let (($x37418 (<= 0.0 (+ ?x2866 ?x3823 ?x5238 ?x3730 (* (- 6.0) S_2) (* 4.0 S_0)))))
 (let (($x37353 (<= 0.0 (+ S_4 ?x389 A_4 (* (- 1.0) A_3) (* (- 2.0) S_2) S_0))))
 (let (($x37091 (<= 0.0 (+ ?x3054 ?x3041 ?x3038 ?x3051 (* (- 12.0) S_2) (* 9.0 S_0)))))
 (let ((?x2028 (+ (* (/ 1.0 4.0) L_0) (* (/ 1.0 4.0) Q_4) (* (- (/ 1.0 4.0)) A_4) (* (/ 1.0 4.0) S_0))))
 (let (($x473 (or $x935 $x1172)))
 (let (($x108 (>= S_1 S_0)))
 (let (($x111 (>= S_2 S_1)))
 (let (($x114 (>= S_3 S_2)))
 (let (($x117 (>= S_4 S_3)))
 (let (($x120 (>= A_2 A_1)))
 (let (($x121 (>= A_3 A_2)))
 (let (($x122 (>= A_4 A_3)))
 (and (<= (+ A_0 (* (- 1.0) L_0)) S_4) $x122 $x121 $x120 $x117 $x114 $x111 $x108 $x473 (<= (+ (* (- (/ 1.0 2.0)) S_3) (* (/ 1.0 2.0) S_0)) (- 5.0)) (<= (+ ?x356 S_0) (- 5.0)) (<= (+ S_4 (* (- 4.0) S_2) ?x1345) 0.0) (<= (+ S_3 (* (- 3.0) S_2) (* 2.0 S_0)) 0.0) (or $x935 (<= (+ L_0 Q_4 (* (- 1.0) A_4) S_3) (- 5.0))) (or $x935 (<= ?x2028 (- 5.0))) (or $x36292 (not $x37091) (not $x37353) (not $x37418)) (or $x935 $x2834) $x80564 (or $x1172 (not (<= 0.0 (+ ?x370 A_4 ?x376 S_2)))) (<= (+ (* (/ 1.0 2.0) S_4) ?x363 (* (/ 1.0 2.0) S_0)) 0.0) $x80538 $x38376 (or $x935 (<= (+ (* 3.0 L_0) ?x3079 ?x3080 ?x6126 ?x350) 0.0)) (or $x935 $x8129) $x38960 (or $x1172 $x37169) (or $x935 (<= ?x2827 (- 5.0))) $x81394 (or $x37169 $x38402 $x38989 $x39537) (or $x36292 $x37169 $x38402 $x39866) (or $x935 (<= (+ ?x7812 ?x8163 ?x8164 (* 5.0 S_3) ?x1155) 0.0)) (or $x1172 $x36985) (or $x935 (<= ?x6880 0.0)) (or $x5137 $x36292 $x37169 $x38402) (or $x5137 $x36292 $x36946 $x36985) (or $x5137 $x36564 $x36946 $x36985) (or $x1276 $x36395 $x36590) (or $x1276 $x36395 $x38402) (or $x5137 $x36572 $x36946 $x36985) (or $x5137 $x36572 $x37169 $x38402) (or $x5137 (not (<= 0.0 (+ ?x3054 ?x3823 ?x1595))) $x36946 $x36985) (or $x5137 $x36395 $x36590 (not (<= 0.0 (+ ?x3054 ?x3823 ?x1595)))) (or $x1172 $x37393) (or $x5137 $x37722 $x38243 $x38402) (or $x37722 $x38402 $x38992 $x39387) (or $x935 (<= (+ ?x2843 ?x3733 ?x6253 ?x2665 ?x356) 0.0)) (or $x5137 $x36946 $x36985 $x38243) (or $x5137 $x36637 $x37722 $x38829) (or $x36637 $x37722 $x38402 $x39297) (or $x5137 $x36564 $x37169 $x38402) (or $x36292 $x37393 $x38402 $x39866) (or $x33766 $x36395 $x36564 $x36590) (or $x33766 $x36395 $x36590 $x38243) (or $x21483 $x37722 $x38402 $x39297) (or $x37722 $x38402 $x38872 $x38974) (or $x37722 $x38829 $x38989 $x39537) (or $x37169 $x38402 $x38872 $x38974) (or $x21483 $x37169 $x38402 $x39297) (or $x5137 $x37169 $x38243 $x38402) (or $x36590 $x37393 $x38992 $x39387) (or $x37393 $x38402 $x38992 $x39387) (or $x37393 $x38402 $x39537 $x39866) (or $x5137 $x36564 $x37722 $x38402) (or $x5137 $x36572 $x37722 $x38402) (or $x5137 $x36637 $x37722 $x38402) (or $x37722 $x38402 $x38989 $x39537) (or $x37393 $x38402 $x38872 $x38974) (or $x21483 $x36590 $x37393 $x39297) (or $x21483 $x37393 $x38402 $x39297) (or $x5137 $x36292 $x36395 $x37484) (or $x5137 $x36292 $x36590 $x37393) (or $x5137 $x36292 $x37393 $x38402) (or $x5137 $x36395 $x36572 $x37484) (or $x36590 $x37393 $x38989 $x39537) (or $x37393 $x38402 $x38989 $x39537) (or $x5137 $x36395 (not (<= 0.0 (+ ?x3054 ?x3823 ?x1595))) $x37484) (or $x33971 $x36395 $x36590 $x36637) (or $x5137 $x36395 $x36637 $x37484) (or $x5137 $x36395 $x36564 $x37484) (or $x5137 $x36395 $x37484 $x38243) (or $x5137 $x37393 $x38243 $x38402) (or $x5137 $x36564 $x37393 $x38402) (or $x5137 $x36637 $x37393 $x38402) (or $x5137 $x36572 $x37393 $x38402) $x34 (not (>= (+ S_4 L_0 ?x376) 0.0)) (<= (+ ?x1097 L_0 S_0) 0.0) (<= (+ ?x363 S_1) (- 5.0)) (<= (+ (* (- (/ 1.0 3.0)) S_4) (* (/ 1.0 3.0) S_0)) (- 5.0)) (<= (+ S_4 ?x1595 ?x1367) 0.0) (<= (+ S_4 L_0 Q_4 (* (- 1.0) A_4)) 0.0) $x1648 (<= (+ (* (- 2.0) S_3) (* 3.0 S_1) ?x1155) 0.0) (<= (+ (* (- (/ 1.0 2.0)) S_4) (* (/ 1.0 2.0) S_1)) (- 5.0)) $x7465 (<= (+ ?x370 S_2) (- 5.0)) (<= (+ (* (- 3.0) S_4) (* 4.0 S_2) ?x1155) 0.0) $x4527 (<= (+ (* (- 2.0) S_4) (* 3.0 S_2) ?x350) 0.0) (<= (+ ?x370 ?x1367 ?x1155) 0.0)))))))))))))))))))))))))))))))))))))))))))))))))))))))))))))))))))))))))))))))))))))))))))))))
(check-sat)
